0000000000000000
0000000000000000
0000000011100000
0000010000010000
0000100000001000
0000000000000000
0000000000000100
0000000000000100
0000000000000000
0000000000000000
0000000000000000
0000111111010000
0001000000001100
0001000000000000
0000000000000000
0000000000000000
